venv/example #8/whynot.mps
NAME netflow
ROWS
 N  OBJ
 L  c0      
 L  c1      
 L  c2      
 L  c3      
 L  c4      
 L  c5      
 L  c6      
 E  c7      
 E  c8      
 E  c9      
 E  c10     
 E  c11     
 E  c12     
 E  c13     
 E  c14     
 E  c15     
 E  c16     
 E  c17     
 E  c18     
 E  c19     
 E  c20     
 E  c21     
 E  c22     
 E  c23     
 E  c24     
 E  c25     
 E  c26     
 E  c27     
 E  c28     
 E  c29     
 E  c30     
 E  c31     
 E  c32     
 E  c33     
 E  c34     
 E  c35     
 E  c36     
 E  c37     
 E  c38     
 E  c39     
 E  c40     
 E  c41     
 E  c42     
 E  c43     
 E  c44     
 E  c45     
 E  c46     
 E  c47     
 E  c48     
 E  c49     
 E  c50     
 E  c51     
 E  c52     
 E  c53     
 E  c54     
 E  c55     
 E  c56     
 E  c57     
 E  c58     
 E  c59     
 E  c60     
 E  c61     
 E  c62     
 E  c63     
 E  c64     
 E  c65     
 E  c66     
 E  c67     
 E  c68     
 E  c69     
 E  c70     
 E  c71     
 E  c72     
 E  c73     
 E  c74     
 E  c75     
 E  c76     
 E  c77     
 E  c78     
 E  c79     
 E  c80     
 E  c81     
 E  c82     
 E  c83     
 E  c84     
 E  c85     
 E  c86     
 E  c87     
 E  c88     
 E  c89     
 E  c90     
 E  c91     
 E  c92     
 E  c93     
 E  c94     
 E  c95     
 E  c96     
 E  c97     
 E  c98     
 E  c99     
 E  c100    
 E  c101    
 E  c102    
 E  c103    
 E  c104    
 E  c105    
 E  c106    
 E  c107    
 E  c108    
 E  c109    
 E  c110    
 E  c111    
 E  c112    
 E  c113    
 E  c114    
 E  c115    
 E  c116    
 E  c117    
 E  c118    
 E  c119    
 E  c120    
 E  c121    
 E  c122    
 E  c123    
 E  c124    
 E  c125    
 E  c126    
 E  c127    
 E  c128    
 E  c129    
 E  c130    
 E  c131    
 E  c132    
 E  c133    
 E  c134    
 E  c135    
 E  c136    
 E  c137    
 E  c138    
 E  c139    
 E  c140    
 E  c141    
 E  c142    
 E  c143    
 E  c144    
 E  c145    
 E  c146    
 E  c147    
 E  c148    
 E  c149    
 E  c150    
 E  c151    
 E  c152    
 E  c153    
 E  c154    
 E  c155    
 E  c156    
 E  c157    
 E  c158    
 E  c159    
 E  c160    
 E  c161    
 E  c162    
 E  c163    
 E  c164    
 E  c165    
 E  c166    
 E  c167    
 E  c168    
 E  c169    
 E  c170    
 E  c171    
 E  c172    
 E  c173    
 E  c174    
 E  c175    
 E  c176    
 E  c177    
 E  c178    
 E  c179    
 E  c180    
 E  c181    
 E  c182    
 E  c183    
 E  c184    
 E  c185    
 E  c186    
 E  c187    
 E  c188    
 E  c189    
 E  c190    
 E  c191    
 E  c192    
 E  c193    
 E  c194    
 E  c195    
 E  c196    
 E  c197    
 E  c198    
 E  c199    
 E  c200    
 E  c201    
 E  c202    
COLUMNS
    flow[instagram,1.0,2.0]  OBJ       1
    flow[instagram,1.0,2.0]  c0        1
    flow[instagram,1.0,2.0]  c7        1
    flow[instagram,1.0,2.0]  c8        1
    flow[instagram,1.0,2.0]  c9        -1
    flow[instagram,1.0,2.0]  c10       -1
    flow[instagram,1.0,2.0]  c14       1
    flow[instagram,1.0,2.0]  c15       1
    flow[instagram,1.0,2.0]  c16       -1
    flow[instagram,1.0,2.0]  c17       -1
    flow[instagram,1.0,2.0]  c21       1
    flow[instagram,1.0,2.0]  c22       1
    flow[instagram,1.0,2.0]  c23       -1
    flow[instagram,1.0,2.0]  c24       -1
    flow[instagram,1.0,2.0]  c28       1
    flow[instagram,1.0,2.0]  c29       1
    flow[instagram,1.0,2.0]  c30       -1
    flow[instagram,1.0,2.0]  c31       -1
    flow[instagram,1.0,2.0]  c35       1
    flow[instagram,1.0,2.0]  c36       1
    flow[instagram,1.0,2.0]  c37       -1
    flow[instagram,1.0,2.0]  c38       -1
    flow[instagram,1.0,2.0]  c42       1
    flow[instagram,1.0,2.0]  c43       1
    flow[instagram,1.0,2.0]  c44       -1
    flow[instagram,1.0,2.0]  c45       -1
    flow[instagram,1.0,2.0]  c49       1
    flow[instagram,1.0,2.0]  c50       1
    flow[instagram,1.0,2.0]  c51       -1
    flow[instagram,1.0,2.0]  c52       -1
    flow[instagram,1.0,3.0]  OBJ       1
    flow[instagram,1.0,3.0]  c1        1
    flow[instagram,1.0,3.0]  c7        1
    flow[instagram,1.0,3.0]  c8        1
    flow[instagram,1.0,3.0]  c11       -1
    flow[instagram,1.0,3.0]  c12       -1
    flow[instagram,1.0,3.0]  c14       1
    flow[instagram,1.0,3.0]  c15       1
    flow[instagram,1.0,3.0]  c18       -1
    flow[instagram,1.0,3.0]  c19       -1
    flow[instagram,1.0,3.0]  c21       1
    flow[instagram,1.0,3.0]  c22       1
    flow[instagram,1.0,3.0]  c25       -1
    flow[instagram,1.0,3.0]  c26       -1
    flow[instagram,1.0,3.0]  c28       1
    flow[instagram,1.0,3.0]  c29       1
    flow[instagram,1.0,3.0]  c32       -1
    flow[instagram,1.0,3.0]  c33       -1
    flow[instagram,1.0,3.0]  c35       1
    flow[instagram,1.0,3.0]  c36       1
    flow[instagram,1.0,3.0]  c39       -1
    flow[instagram,1.0,3.0]  c40       -1
    flow[instagram,1.0,3.0]  c42       1
    flow[instagram,1.0,3.0]  c43       1
    flow[instagram,1.0,3.0]  c46       -1
    flow[instagram,1.0,3.0]  c47       -1
    flow[instagram,1.0,3.0]  c49       1
    flow[instagram,1.0,3.0]  c50       1
    flow[instagram,1.0,3.0]  c53       -1
    flow[instagram,1.0,3.0]  c54       -1
    flow[instagram,2.0,3.0]  OBJ       2
    flow[instagram,2.0,3.0]  c2        1
    flow[instagram,2.0,3.0]  c9        1
    flow[instagram,2.0,3.0]  c10       1
    flow[instagram,2.0,3.0]  c11       -1
    flow[instagram,2.0,3.0]  c12       -1
    flow[instagram,2.0,3.0]  c16       1
    flow[instagram,2.0,3.0]  c17       1
    flow[instagram,2.0,3.0]  c18       -1
    flow[instagram,2.0,3.0]  c19       -1
    flow[instagram,2.0,3.0]  c23       1
    flow[instagram,2.0,3.0]  c24       1
    flow[instagram,2.0,3.0]  c25       -1
    flow[instagram,2.0,3.0]  c26       -1
    flow[instagram,2.0,3.0]  c30       1
    flow[instagram,2.0,3.0]  c31       1
    flow[instagram,2.0,3.0]  c32       -1
    flow[instagram,2.0,3.0]  c33       -1
    flow[instagram,2.0,3.0]  c37       1
    flow[instagram,2.0,3.0]  c38       1
    flow[instagram,2.0,3.0]  c39       -1
    flow[instagram,2.0,3.0]  c40       -1
    flow[instagram,2.0,3.0]  c44       1
    flow[instagram,2.0,3.0]  c45       1
    flow[instagram,2.0,3.0]  c46       -1
    flow[instagram,2.0,3.0]  c47       -1
    flow[instagram,2.0,3.0]  c51       1
    flow[instagram,2.0,3.0]  c52       1
    flow[instagram,2.0,3.0]  c53       -1
    flow[instagram,2.0,3.0]  c54       -1
    flow[instagram,4.0,5.0]  OBJ       3
    flow[instagram,4.0,5.0]  c3        1
    flow[instagram,4.0,5.0]  c13       1
    flow[instagram,4.0,5.0]  c20       1
    flow[instagram,4.0,5.0]  c27       1
    flow[instagram,4.0,5.0]  c34       1
    flow[instagram,4.0,5.0]  c41       1
    flow[instagram,4.0,5.0]  c48       1
    flow[instagram,4.0,5.0]  c55       1
    flow[instagram,3.0,4.0]  OBJ       8
    flow[instagram,3.0,4.0]  c4        1
    flow[instagram,3.0,4.0]  c11       1
    flow[instagram,3.0,4.0]  c12       1
    flow[instagram,3.0,4.0]  c13       -1
    flow[instagram,3.0,4.0]  c18       1
    flow[instagram,3.0,4.0]  c19       1
    flow[instagram,3.0,4.0]  c20       -1
    flow[instagram,3.0,4.0]  c25       1
    flow[instagram,3.0,4.0]  c26       1
    flow[instagram,3.0,4.0]  c27       -1
    flow[instagram,3.0,4.0]  c32       1
    flow[instagram,3.0,4.0]  c33       1
    flow[instagram,3.0,4.0]  c34       -1
    flow[instagram,3.0,4.0]  c39       1
    flow[instagram,3.0,4.0]  c40       1
    flow[instagram,3.0,4.0]  c41       -1
    flow[instagram,3.0,4.0]  c46       1
    flow[instagram,3.0,4.0]  c47       1
    flow[instagram,3.0,4.0]  c48       -1
    flow[instagram,3.0,4.0]  c53       1
    flow[instagram,3.0,4.0]  c54       1
    flow[instagram,3.0,4.0]  c55       -1
    flow[instagram,2.0,4.0]  OBJ       4
    flow[instagram,2.0,4.0]  c5        1
    flow[instagram,2.0,4.0]  c9        1
    flow[instagram,2.0,4.0]  c10       1
    flow[instagram,2.0,4.0]  c13       -1
    flow[instagram,2.0,4.0]  c16       1
    flow[instagram,2.0,4.0]  c17       1
    flow[instagram,2.0,4.0]  c20       -1
    flow[instagram,2.0,4.0]  c23       1
    flow[instagram,2.0,4.0]  c24       1
    flow[instagram,2.0,4.0]  c27       -1
    flow[instagram,2.0,4.0]  c30       1
    flow[instagram,2.0,4.0]  c31       1
    flow[instagram,2.0,4.0]  c34       -1
    flow[instagram,2.0,4.0]  c37       1
    flow[instagram,2.0,4.0]  c38       1
    flow[instagram,2.0,4.0]  c41       -1
    flow[instagram,2.0,4.0]  c44       1
    flow[instagram,2.0,4.0]  c45       1
    flow[instagram,2.0,4.0]  c48       -1
    flow[instagram,2.0,4.0]  c51       1
    flow[instagram,2.0,4.0]  c52       1
    flow[instagram,2.0,4.0]  c55       -1
    flow[instagram,3.0,5.0]  OBJ       5
    flow[instagram,3.0,5.0]  c6        1
    flow[instagram,3.0,5.0]  c11       1
    flow[instagram,3.0,5.0]  c12       1
    flow[instagram,3.0,5.0]  c18       1
    flow[instagram,3.0,5.0]  c19       1
    flow[instagram,3.0,5.0]  c25       1
    flow[instagram,3.0,5.0]  c26       1
    flow[instagram,3.0,5.0]  c32       1
    flow[instagram,3.0,5.0]  c33       1
    flow[instagram,3.0,5.0]  c39       1
    flow[instagram,3.0,5.0]  c40       1
    flow[instagram,3.0,5.0]  c46       1
    flow[instagram,3.0,5.0]  c47       1
    flow[instagram,3.0,5.0]  c53       1
    flow[instagram,3.0,5.0]  c54       1
    flow[twitter,1.0,2.0]  c0        1
    flow[twitter,1.0,2.0]  c56       1
    flow[twitter,1.0,2.0]  c57       1
    flow[twitter,1.0,2.0]  c58       -1
    flow[twitter,1.0,2.0]  c59       -1
    flow[twitter,1.0,2.0]  c63       1
    flow[twitter,1.0,2.0]  c64       1
    flow[twitter,1.0,2.0]  c65       -1
    flow[twitter,1.0,2.0]  c66       -1
    flow[twitter,1.0,2.0]  c70       1
    flow[twitter,1.0,2.0]  c71       1
    flow[twitter,1.0,2.0]  c72       -1
    flow[twitter,1.0,2.0]  c73       -1
    flow[twitter,1.0,2.0]  c77       1
    flow[twitter,1.0,2.0]  c78       1
    flow[twitter,1.0,2.0]  c79       -1
    flow[twitter,1.0,2.0]  c80       -1
    flow[twitter,1.0,2.0]  c84       1
    flow[twitter,1.0,2.0]  c85       1
    flow[twitter,1.0,2.0]  c86       -1
    flow[twitter,1.0,2.0]  c87       -1
    flow[twitter,1.0,2.0]  c91       1
    flow[twitter,1.0,2.0]  c92       1
    flow[twitter,1.0,2.0]  c93       -1
    flow[twitter,1.0,2.0]  c94       -1
    flow[twitter,1.0,2.0]  c98       1
    flow[twitter,1.0,2.0]  c99       1
    flow[twitter,1.0,2.0]  c100      -1
    flow[twitter,1.0,2.0]  c101      -1
    flow[twitter,1.0,3.0]  c1        1
    flow[twitter,1.0,3.0]  c56       1
    flow[twitter,1.0,3.0]  c57       1
    flow[twitter,1.0,3.0]  c60       -1
    flow[twitter,1.0,3.0]  c61       -1
    flow[twitter,1.0,3.0]  c63       1
    flow[twitter,1.0,3.0]  c64       1
    flow[twitter,1.0,3.0]  c67       -1
    flow[twitter,1.0,3.0]  c68       -1
    flow[twitter,1.0,3.0]  c70       1
    flow[twitter,1.0,3.0]  c71       1
    flow[twitter,1.0,3.0]  c74       -1
    flow[twitter,1.0,3.0]  c75       -1
    flow[twitter,1.0,3.0]  c77       1
    flow[twitter,1.0,3.0]  c78       1
    flow[twitter,1.0,3.0]  c81       -1
    flow[twitter,1.0,3.0]  c82       -1
    flow[twitter,1.0,3.0]  c84       1
    flow[twitter,1.0,3.0]  c85       1
    flow[twitter,1.0,3.0]  c88       -1
    flow[twitter,1.0,3.0]  c89       -1
    flow[twitter,1.0,3.0]  c91       1
    flow[twitter,1.0,3.0]  c92       1
    flow[twitter,1.0,3.0]  c95       -1
    flow[twitter,1.0,3.0]  c96       -1
    flow[twitter,1.0,3.0]  c98       1
    flow[twitter,1.0,3.0]  c99       1
    flow[twitter,1.0,3.0]  c102      -1
    flow[twitter,1.0,3.0]  c103      -1
    flow[twitter,2.0,3.0]  c2        1
    flow[twitter,2.0,3.0]  c58       1
    flow[twitter,2.0,3.0]  c59       1
    flow[twitter,2.0,3.0]  c60       -1
    flow[twitter,2.0,3.0]  c61       -1
    flow[twitter,2.0,3.0]  c65       1
    flow[twitter,2.0,3.0]  c66       1
    flow[twitter,2.0,3.0]  c67       -1
    flow[twitter,2.0,3.0]  c68       -1
    flow[twitter,2.0,3.0]  c72       1
    flow[twitter,2.0,3.0]  c73       1
    flow[twitter,2.0,3.0]  c74       -1
    flow[twitter,2.0,3.0]  c75       -1
    flow[twitter,2.0,3.0]  c79       1
    flow[twitter,2.0,3.0]  c80       1
    flow[twitter,2.0,3.0]  c81       -1
    flow[twitter,2.0,3.0]  c82       -1
    flow[twitter,2.0,3.0]  c86       1
    flow[twitter,2.0,3.0]  c87       1
    flow[twitter,2.0,3.0]  c88       -1
    flow[twitter,2.0,3.0]  c89       -1
    flow[twitter,2.0,3.0]  c93       1
    flow[twitter,2.0,3.0]  c94       1
    flow[twitter,2.0,3.0]  c95       -1
    flow[twitter,2.0,3.0]  c96       -1
    flow[twitter,2.0,3.0]  c100      1
    flow[twitter,2.0,3.0]  c101      1
    flow[twitter,2.0,3.0]  c102      -1
    flow[twitter,2.0,3.0]  c103      -1
    flow[twitter,4.0,5.0]  c3        1
    flow[twitter,4.0,5.0]  c62       1
    flow[twitter,4.0,5.0]  c69       1
    flow[twitter,4.0,5.0]  c76       1
    flow[twitter,4.0,5.0]  c83       1
    flow[twitter,4.0,5.0]  c90       1
    flow[twitter,4.0,5.0]  c97       1
    flow[twitter,4.0,5.0]  c104      1
    flow[twitter,3.0,4.0]  c4        1
    flow[twitter,3.0,4.0]  c60       1
    flow[twitter,3.0,4.0]  c61       1
    flow[twitter,3.0,4.0]  c62       -1
    flow[twitter,3.0,4.0]  c67       1
    flow[twitter,3.0,4.0]  c68       1
    flow[twitter,3.0,4.0]  c69       -1
    flow[twitter,3.0,4.0]  c74       1
    flow[twitter,3.0,4.0]  c75       1
    flow[twitter,3.0,4.0]  c76       -1
    flow[twitter,3.0,4.0]  c81       1
    flow[twitter,3.0,4.0]  c82       1
    flow[twitter,3.0,4.0]  c83       -1
    flow[twitter,3.0,4.0]  c88       1
    flow[twitter,3.0,4.0]  c89       1
    flow[twitter,3.0,4.0]  c90       -1
    flow[twitter,3.0,4.0]  c95       1
    flow[twitter,3.0,4.0]  c96       1
    flow[twitter,3.0,4.0]  c97       -1
    flow[twitter,3.0,4.0]  c102      1
    flow[twitter,3.0,4.0]  c103      1
    flow[twitter,3.0,4.0]  c104      -1
    flow[twitter,2.0,4.0]  c5        1
    flow[twitter,2.0,4.0]  c58       1
    flow[twitter,2.0,4.0]  c59       1
    flow[twitter,2.0,4.0]  c62       -1
    flow[twitter,2.0,4.0]  c65       1
    flow[twitter,2.0,4.0]  c66       1
    flow[twitter,2.0,4.0]  c69       -1
    flow[twitter,2.0,4.0]  c72       1
    flow[twitter,2.0,4.0]  c73       1
    flow[twitter,2.0,4.0]  c76       -1
    flow[twitter,2.0,4.0]  c79       1
    flow[twitter,2.0,4.0]  c80       1
    flow[twitter,2.0,4.0]  c83       -1
    flow[twitter,2.0,4.0]  c86       1
    flow[twitter,2.0,4.0]  c87       1
    flow[twitter,2.0,4.0]  c90       -1
    flow[twitter,2.0,4.0]  c93       1
    flow[twitter,2.0,4.0]  c94       1
    flow[twitter,2.0,4.0]  c97       -1
    flow[twitter,2.0,4.0]  c100      1
    flow[twitter,2.0,4.0]  c101      1
    flow[twitter,2.0,4.0]  c104      -1
    flow[twitter,3.0,5.0]  c6        1
    flow[twitter,3.0,5.0]  c60       1
    flow[twitter,3.0,5.0]  c61       1
    flow[twitter,3.0,5.0]  c67       1
    flow[twitter,3.0,5.0]  c68       1
    flow[twitter,3.0,5.0]  c74       1
    flow[twitter,3.0,5.0]  c75       1
    flow[twitter,3.0,5.0]  c81       1
    flow[twitter,3.0,5.0]  c82       1
    flow[twitter,3.0,5.0]  c88       1
    flow[twitter,3.0,5.0]  c89       1
    flow[twitter,3.0,5.0]  c95       1
    flow[twitter,3.0,5.0]  c96       1
    flow[twitter,3.0,5.0]  c102      1
    flow[twitter,3.0,5.0]  c103      1
    flow[zoom,1.0,2.0]  c0        1
    flow[zoom,1.0,2.0]  c105      1
    flow[zoom,1.0,2.0]  c106      1
    flow[zoom,1.0,2.0]  c107      -1
    flow[zoom,1.0,2.0]  c108      -1
    flow[zoom,1.0,2.0]  c112      1
    flow[zoom,1.0,2.0]  c113      1
    flow[zoom,1.0,2.0]  c114      -1
    flow[zoom,1.0,2.0]  c115      -1
    flow[zoom,1.0,2.0]  c119      1
    flow[zoom,1.0,2.0]  c120      1
    flow[zoom,1.0,2.0]  c121      -1
    flow[zoom,1.0,2.0]  c122      -1
    flow[zoom,1.0,2.0]  c126      1
    flow[zoom,1.0,2.0]  c127      1
    flow[zoom,1.0,2.0]  c128      -1
    flow[zoom,1.0,2.0]  c129      -1
    flow[zoom,1.0,2.0]  c133      1
    flow[zoom,1.0,2.0]  c134      1
    flow[zoom,1.0,2.0]  c135      -1
    flow[zoom,1.0,2.0]  c136      -1
    flow[zoom,1.0,2.0]  c140      1
    flow[zoom,1.0,2.0]  c141      1
    flow[zoom,1.0,2.0]  c142      -1
    flow[zoom,1.0,2.0]  c143      -1
    flow[zoom,1.0,2.0]  c147      1
    flow[zoom,1.0,2.0]  c148      1
    flow[zoom,1.0,2.0]  c149      -1
    flow[zoom,1.0,2.0]  c150      -1
    flow[zoom,1.0,3.0]  c1        1
    flow[zoom,1.0,3.0]  c105      1
    flow[zoom,1.0,3.0]  c106      1
    flow[zoom,1.0,3.0]  c109      -1
    flow[zoom,1.0,3.0]  c110      -1
    flow[zoom,1.0,3.0]  c112      1
    flow[zoom,1.0,3.0]  c113      1
    flow[zoom,1.0,3.0]  c116      -1
    flow[zoom,1.0,3.0]  c117      -1
    flow[zoom,1.0,3.0]  c119      1
    flow[zoom,1.0,3.0]  c120      1
    flow[zoom,1.0,3.0]  c123      -1
    flow[zoom,1.0,3.0]  c124      -1
    flow[zoom,1.0,3.0]  c126      1
    flow[zoom,1.0,3.0]  c127      1
    flow[zoom,1.0,3.0]  c130      -1
    flow[zoom,1.0,3.0]  c131      -1
    flow[zoom,1.0,3.0]  c133      1
    flow[zoom,1.0,3.0]  c134      1
    flow[zoom,1.0,3.0]  c137      -1
    flow[zoom,1.0,3.0]  c138      -1
    flow[zoom,1.0,3.0]  c140      1
    flow[zoom,1.0,3.0]  c141      1
    flow[zoom,1.0,3.0]  c144      -1
    flow[zoom,1.0,3.0]  c145      -1
    flow[zoom,1.0,3.0]  c147      1
    flow[zoom,1.0,3.0]  c148      1
    flow[zoom,1.0,3.0]  c151      -1
    flow[zoom,1.0,3.0]  c152      -1
    flow[zoom,2.0,3.0]  c2        1
    flow[zoom,2.0,3.0]  c107      1
    flow[zoom,2.0,3.0]  c108      1
    flow[zoom,2.0,3.0]  c109      -1
    flow[zoom,2.0,3.0]  c110      -1
    flow[zoom,2.0,3.0]  c114      1
    flow[zoom,2.0,3.0]  c115      1
    flow[zoom,2.0,3.0]  c116      -1
    flow[zoom,2.0,3.0]  c117      -1
    flow[zoom,2.0,3.0]  c121      1
    flow[zoom,2.0,3.0]  c122      1
    flow[zoom,2.0,3.0]  c123      -1
    flow[zoom,2.0,3.0]  c124      -1
    flow[zoom,2.0,3.0]  c128      1
    flow[zoom,2.0,3.0]  c129      1
    flow[zoom,2.0,3.0]  c130      -1
    flow[zoom,2.0,3.0]  c131      -1
    flow[zoom,2.0,3.0]  c135      1
    flow[zoom,2.0,3.0]  c136      1
    flow[zoom,2.0,3.0]  c137      -1
    flow[zoom,2.0,3.0]  c138      -1
    flow[zoom,2.0,3.0]  c142      1
    flow[zoom,2.0,3.0]  c143      1
    flow[zoom,2.0,3.0]  c144      -1
    flow[zoom,2.0,3.0]  c145      -1
    flow[zoom,2.0,3.0]  c149      1
    flow[zoom,2.0,3.0]  c150      1
    flow[zoom,2.0,3.0]  c151      -1
    flow[zoom,2.0,3.0]  c152      -1
    flow[zoom,4.0,5.0]  c3        1
    flow[zoom,4.0,5.0]  c111      1
    flow[zoom,4.0,5.0]  c118      1
    flow[zoom,4.0,5.0]  c125      1
    flow[zoom,4.0,5.0]  c132      1
    flow[zoom,4.0,5.0]  c139      1
    flow[zoom,4.0,5.0]  c146      1
    flow[zoom,4.0,5.0]  c153      1
    flow[zoom,3.0,4.0]  c4        1
    flow[zoom,3.0,4.0]  c109      1
    flow[zoom,3.0,4.0]  c110      1
    flow[zoom,3.0,4.0]  c111      -1
    flow[zoom,3.0,4.0]  c116      1
    flow[zoom,3.0,4.0]  c117      1
    flow[zoom,3.0,4.0]  c118      -1
    flow[zoom,3.0,4.0]  c123      1
    flow[zoom,3.0,4.0]  c124      1
    flow[zoom,3.0,4.0]  c125      -1
    flow[zoom,3.0,4.0]  c130      1
    flow[zoom,3.0,4.0]  c131      1
    flow[zoom,3.0,4.0]  c132      -1
    flow[zoom,3.0,4.0]  c137      1
    flow[zoom,3.0,4.0]  c138      1
    flow[zoom,3.0,4.0]  c139      -1
    flow[zoom,3.0,4.0]  c144      1
    flow[zoom,3.0,4.0]  c145      1
    flow[zoom,3.0,4.0]  c146      -1
    flow[zoom,3.0,4.0]  c151      1
    flow[zoom,3.0,4.0]  c152      1
    flow[zoom,3.0,4.0]  c153      -1
    flow[zoom,2.0,4.0]  c5        1
    flow[zoom,2.0,4.0]  c107      1
    flow[zoom,2.0,4.0]  c108      1
    flow[zoom,2.0,4.0]  c111      -1
    flow[zoom,2.0,4.0]  c114      1
    flow[zoom,2.0,4.0]  c115      1
    flow[zoom,2.0,4.0]  c118      -1
    flow[zoom,2.0,4.0]  c121      1
    flow[zoom,2.0,4.0]  c122      1
    flow[zoom,2.0,4.0]  c125      -1
    flow[zoom,2.0,4.0]  c128      1
    flow[zoom,2.0,4.0]  c129      1
    flow[zoom,2.0,4.0]  c132      -1
    flow[zoom,2.0,4.0]  c135      1
    flow[zoom,2.0,4.0]  c136      1
    flow[zoom,2.0,4.0]  c139      -1
    flow[zoom,2.0,4.0]  c142      1
    flow[zoom,2.0,4.0]  c143      1
    flow[zoom,2.0,4.0]  c146      -1
    flow[zoom,2.0,4.0]  c149      1
    flow[zoom,2.0,4.0]  c150      1
    flow[zoom,2.0,4.0]  c153      -1
    flow[zoom,3.0,5.0]  c6        1
    flow[zoom,3.0,5.0]  c109      1
    flow[zoom,3.0,5.0]  c110      1
    flow[zoom,3.0,5.0]  c116      1
    flow[zoom,3.0,5.0]  c117      1
    flow[zoom,3.0,5.0]  c123      1
    flow[zoom,3.0,5.0]  c124      1
    flow[zoom,3.0,5.0]  c130      1
    flow[zoom,3.0,5.0]  c131      1
    flow[zoom,3.0,5.0]  c137      1
    flow[zoom,3.0,5.0]  c138      1
    flow[zoom,3.0,5.0]  c144      1
    flow[zoom,3.0,5.0]  c145      1
    flow[zoom,3.0,5.0]  c151      1
    flow[zoom,3.0,5.0]  c152      1
    flow[netflix,1.0,2.0]  c0        1
    flow[netflix,1.0,2.0]  c154      1
    flow[netflix,1.0,2.0]  c155      1
    flow[netflix,1.0,2.0]  c156      -1
    flow[netflix,1.0,2.0]  c157      -1
    flow[netflix,1.0,2.0]  c161      1
    flow[netflix,1.0,2.0]  c162      1
    flow[netflix,1.0,2.0]  c163      -1
    flow[netflix,1.0,2.0]  c164      -1
    flow[netflix,1.0,2.0]  c168      1
    flow[netflix,1.0,2.0]  c169      1
    flow[netflix,1.0,2.0]  c170      -1
    flow[netflix,1.0,2.0]  c171      -1
    flow[netflix,1.0,2.0]  c175      1
    flow[netflix,1.0,2.0]  c176      1
    flow[netflix,1.0,2.0]  c177      -1
    flow[netflix,1.0,2.0]  c178      -1
    flow[netflix,1.0,2.0]  c182      1
    flow[netflix,1.0,2.0]  c183      1
    flow[netflix,1.0,2.0]  c184      -1
    flow[netflix,1.0,2.0]  c185      -1
    flow[netflix,1.0,2.0]  c189      1
    flow[netflix,1.0,2.0]  c190      1
    flow[netflix,1.0,2.0]  c191      -1
    flow[netflix,1.0,2.0]  c192      -1
    flow[netflix,1.0,2.0]  c196      1
    flow[netflix,1.0,2.0]  c197      1
    flow[netflix,1.0,2.0]  c198      -1
    flow[netflix,1.0,2.0]  c199      -1
    flow[netflix,1.0,3.0]  c1        1
    flow[netflix,1.0,3.0]  c154      1
    flow[netflix,1.0,3.0]  c155      1
    flow[netflix,1.0,3.0]  c158      -1
    flow[netflix,1.0,3.0]  c159      -1
    flow[netflix,1.0,3.0]  c161      1
    flow[netflix,1.0,3.0]  c162      1
    flow[netflix,1.0,3.0]  c165      -1
    flow[netflix,1.0,3.0]  c166      -1
    flow[netflix,1.0,3.0]  c168      1
    flow[netflix,1.0,3.0]  c169      1
    flow[netflix,1.0,3.0]  c172      -1
    flow[netflix,1.0,3.0]  c173      -1
    flow[netflix,1.0,3.0]  c175      1
    flow[netflix,1.0,3.0]  c176      1
    flow[netflix,1.0,3.0]  c179      -1
    flow[netflix,1.0,3.0]  c180      -1
    flow[netflix,1.0,3.0]  c182      1
    flow[netflix,1.0,3.0]  c183      1
    flow[netflix,1.0,3.0]  c186      -1
    flow[netflix,1.0,3.0]  c187      -1
    flow[netflix,1.0,3.0]  c189      1
    flow[netflix,1.0,3.0]  c190      1
    flow[netflix,1.0,3.0]  c193      -1
    flow[netflix,1.0,3.0]  c194      -1
    flow[netflix,1.0,3.0]  c196      1
    flow[netflix,1.0,3.0]  c197      1
    flow[netflix,1.0,3.0]  c200      -1
    flow[netflix,1.0,3.0]  c201      -1
    flow[netflix,2.0,3.0]  c2        1
    flow[netflix,2.0,3.0]  c156      1
    flow[netflix,2.0,3.0]  c157      1
    flow[netflix,2.0,3.0]  c158      -1
    flow[netflix,2.0,3.0]  c159      -1
    flow[netflix,2.0,3.0]  c163      1
    flow[netflix,2.0,3.0]  c164      1
    flow[netflix,2.0,3.0]  c165      -1
    flow[netflix,2.0,3.0]  c166      -1
    flow[netflix,2.0,3.0]  c170      1
    flow[netflix,2.0,3.0]  c171      1
    flow[netflix,2.0,3.0]  c172      -1
    flow[netflix,2.0,3.0]  c173      -1
    flow[netflix,2.0,3.0]  c177      1
    flow[netflix,2.0,3.0]  c178      1
    flow[netflix,2.0,3.0]  c179      -1
    flow[netflix,2.0,3.0]  c180      -1
    flow[netflix,2.0,3.0]  c184      1
    flow[netflix,2.0,3.0]  c185      1
    flow[netflix,2.0,3.0]  c186      -1
    flow[netflix,2.0,3.0]  c187      -1
    flow[netflix,2.0,3.0]  c191      1
    flow[netflix,2.0,3.0]  c192      1
    flow[netflix,2.0,3.0]  c193      -1
    flow[netflix,2.0,3.0]  c194      -1
    flow[netflix,2.0,3.0]  c198      1
    flow[netflix,2.0,3.0]  c199      1
    flow[netflix,2.0,3.0]  c200      -1
    flow[netflix,2.0,3.0]  c201      -1
    flow[netflix,4.0,5.0]  c3        1
    flow[netflix,4.0,5.0]  c160      1
    flow[netflix,4.0,5.0]  c167      1
    flow[netflix,4.0,5.0]  c174      1
    flow[netflix,4.0,5.0]  c181      1
    flow[netflix,4.0,5.0]  c188      1
    flow[netflix,4.0,5.0]  c195      1
    flow[netflix,4.0,5.0]  c202      1
    flow[netflix,3.0,4.0]  c4        1
    flow[netflix,3.0,4.0]  c158      1
    flow[netflix,3.0,4.0]  c159      1
    flow[netflix,3.0,4.0]  c160      -1
    flow[netflix,3.0,4.0]  c165      1
    flow[netflix,3.0,4.0]  c166      1
    flow[netflix,3.0,4.0]  c167      -1
    flow[netflix,3.0,4.0]  c172      1
    flow[netflix,3.0,4.0]  c173      1
    flow[netflix,3.0,4.0]  c174      -1
    flow[netflix,3.0,4.0]  c179      1
    flow[netflix,3.0,4.0]  c180      1
    flow[netflix,3.0,4.0]  c181      -1
    flow[netflix,3.0,4.0]  c186      1
    flow[netflix,3.0,4.0]  c187      1
    flow[netflix,3.0,4.0]  c188      -1
    flow[netflix,3.0,4.0]  c193      1
    flow[netflix,3.0,4.0]  c194      1
    flow[netflix,3.0,4.0]  c195      -1
    flow[netflix,3.0,4.0]  c200      1
    flow[netflix,3.0,4.0]  c201      1
    flow[netflix,3.0,4.0]  c202      -1
    flow[netflix,2.0,4.0]  c5        1
    flow[netflix,2.0,4.0]  c156      1
    flow[netflix,2.0,4.0]  c157      1
    flow[netflix,2.0,4.0]  c160      -1
    flow[netflix,2.0,4.0]  c163      1
    flow[netflix,2.0,4.0]  c164      1
    flow[netflix,2.0,4.0]  c167      -1
    flow[netflix,2.0,4.0]  c170      1
    flow[netflix,2.0,4.0]  c171      1
    flow[netflix,2.0,4.0]  c174      -1
    flow[netflix,2.0,4.0]  c177      1
    flow[netflix,2.0,4.0]  c178      1
    flow[netflix,2.0,4.0]  c181      -1
    flow[netflix,2.0,4.0]  c184      1
    flow[netflix,2.0,4.0]  c185      1
    flow[netflix,2.0,4.0]  c188      -1
    flow[netflix,2.0,4.0]  c191      1
    flow[netflix,2.0,4.0]  c192      1
    flow[netflix,2.0,4.0]  c195      -1
    flow[netflix,2.0,4.0]  c198      1
    flow[netflix,2.0,4.0]  c199      1
    flow[netflix,2.0,4.0]  c202      -1
    flow[netflix,3.0,5.0]  c6        1
    flow[netflix,3.0,5.0]  c158      1
    flow[netflix,3.0,5.0]  c159      1
    flow[netflix,3.0,5.0]  c165      1
    flow[netflix,3.0,5.0]  c166      1
    flow[netflix,3.0,5.0]  c172      1
    flow[netflix,3.0,5.0]  c173      1
    flow[netflix,3.0,5.0]  c179      1
    flow[netflix,3.0,5.0]  c180      1
    flow[netflix,3.0,5.0]  c186      1
    flow[netflix,3.0,5.0]  c187      1
    flow[netflix,3.0,5.0]  c193      1
    flow[netflix,3.0,5.0]  c194      1
    flow[netflix,3.0,5.0]  c200      1
    flow[netflix,3.0,5.0]  c201      1
RHS
    RHS1      c0        20
    RHS1      c1        10
    RHS1      c2        10
    RHS1      c3        30
    RHS1      c4        40
    RHS1      c5        20
    RHS1      c6        10
    RHS1      c7        15
    RHS1      c8        15
    RHS1      c9        15
    RHS1      c10       15
    RHS1      c11       15
    RHS1      c12       15
    RHS1      c13       15
    RHS1      c14       15
    RHS1      c15       15
    RHS1      c16       15
    RHS1      c17       15
    RHS1      c18       15
    RHS1      c19       15
    RHS1      c20       15
    RHS1      c49       -15
    RHS1      c50       -15
    RHS1      c51       -15
    RHS1      c52       -15
    RHS1      c53       -15
    RHS1      c54       -15
    RHS1      c55       -15
    RHS1      c56       5
    RHS1      c57       5
    RHS1      c58       5
    RHS1      c59       5
    RHS1      c60       5
    RHS1      c61       5
    RHS1      c62       5
    RHS1      c63       5
    RHS1      c64       5
    RHS1      c65       5
    RHS1      c66       5
    RHS1      c67       5
    RHS1      c68       5
    RHS1      c69       5
    RHS1      c119      10
    RHS1      c120      10
    RHS1      c121      10
    RHS1      c122      10
    RHS1      c123      10
    RHS1      c124      10
    RHS1      c125      10
    RHS1      c126      10
    RHS1      c127      10
    RHS1      c128      10
    RHS1      c129      10
    RHS1      c130      10
    RHS1      c131      10
    RHS1      c132      10
    RHS1      c182      5
    RHS1      c183      5
    RHS1      c184      5
    RHS1      c185      5
    RHS1      c186      5
    RHS1      c187      5
    RHS1      c188      5
    RHS1      c189      5
    RHS1      c190      5
    RHS1      c191      5
    RHS1      c192      5
    RHS1      c193      5
    RHS1      c194      5
    RHS1      c195      5
BOUNDS
ENDATA
